projet_m2_wvcp/original_wvcp_dzn/r25.clq.dzn
cliques=[{124,194,48,252,0,81,71,137,239,26,222,109,148},{4,2,10,7,6,1,0,3,5,8,12,11,9},{139,28,2,164,129,65,42,257,228,182,245,97,114},{4,2,10,7,6,1,0,3,5,8,12,11,9},{259,4,131,31,200,214,173,185,141,247,54,230,18,117},{19,248,186,86,231,55,132,142,174,5,260,118,201,100,44},{152,6,166,143,76,87,101,32,261,232,20,133,202,215},{102,7,77,144,203,45,187,56,175,153,233,167,216,33},{4,2,10,7,6,1,0,3,5,8,12,11,9},{4,2,10,7,6,1,0,3,5,8,12,11,9},{91,24,157,146,10,37,122,59,106,264,220,237,178},{60,135,238,123,107,251,158,38,92,69,25,192,11},{47,39,108,80,147,179,70,221,136,169,193,61,12,207,265},{19,24,13,17,23,22,14,25,20,21,18,15,16},{111,62,72,224,253,197,210,161,14,51,241,40},{19,24,13,17,23,22,14,25,20,21,18,15,16},{19,24,13,17,23,22,14,25,20,21,18,15,16},{116,151,246,99,17,30,67,140,3,258,85,43,172,184},{259,4,131,31,200,214,173,185,141,247,54,230,18,117},{19,248,186,86,231,55,132,142,174,5,260,118,201,100,44},{152,6,166,143,76,87,101,32,261,232,20,133,202,215},{19,24,13,17,23,22,14,25,20,21,18,15,16},{19,24,13,17,23,22,14,25,20,21,18,15,16},{19,24,13,17,23,22,14,25,20,21,18,15,16},{91,24,157,146,10,37,122,59,106,264,220,237,178},{60,135,238,123,107,251,158,38,92,69,25,192,11},{27,39,28,37,36,31,35,38,29,32,30,26,34,33},{27,39,28,37,36,31,35,38,29,32,30,26,34,33},{27,39,28,37,36,31,35,38,29,32,30,26,34,33},{27,39,28,37,36,31,35,38,29,32,30,26,34,33},{27,39,28,37,36,31,35,38,29,32,30,26,34,33},{27,39,28,37,36,31,35,38,29,32,30,26,34,33},{27,39,28,37,36,31,35,38,29,32,30,26,34,33},{27,39,28,37,36,31,35,38,29,32,30,26,34,33},{27,39,28,37,36,31,35,38,29,32,30,26,34,33},{27,39,28,37,36,31,35,38,29,32,30,26,34,33},{27,39,28,37,36,31,35,38,29,32,30,26,34,33},{27,39,28,37,36,31,35,38,29,32,30,26,34,33},{27,39,28,37,36,31,35,38,29,32,30,26,34,33},{47,39,108,80,147,179,70,221,136,169,193,61,12,207,265},{111,62,72,224,253,197,210,161,14,51,241,40},{41,96,256,227,212,244,53,113,163,128,64,74,199},{139,28,2,164,129,65,42,257,228,182,245,97,114},{116,151,246,99,17,30,67,140,3,258,85,43,172,184},{19,248,186,86,231,55,132,142,174,5,260,118,201,100,44},{102,7,77,144,203,45,187,56,175,153,233,167,216,33},{249,46,145,168,22,234,176,189,34,78,104},{47,39,108,80,147,179,70,221,136,169,193,61,12,207,265},{58,60,48,49,59,53,56,55,51,54,52,61,50,57},{58,60,48,49,59,53,56,55,51,54,52,61,50,57},{58,60,48,49,59,53,56,55,51,54,52,61,50,57},{58,60,48,49,59,53,56,55,51,54,52,61,50,57},{58,60,48,49,59,53,56,55,51,54,52,61,50,57},{58,60,48,49,59,53,56,55,51,54,52,61,50,57},{58,60,48,49,59,53,56,55,51,54,52,61,50,57},{58,60,48,49,59,53,56,55,51,54,52,61,50,57},{58,60,48,49,59,53,56,55,51,54,52,61,50,57},{58,60,48,49,59,53,56,55,51,54,52,61,50,57},{58,60,48,49,59,53,56,55,51,54,52,61,50,57},{91,24,157,146,10,37,122,59,106,264,220,237,178},{58,60,48,49,59,53,56,55,51,54,52,61,50,57},{47,39,108,80,147,179,70,221,136,169,193,61,12,207,265},{111,62,72,224,253,197,210,161,14,51,241,40},{63,225,211,254,181,242,112,52,95,15,198,150},{41,96,256,227,212,244,53,113,163,128,64,74,199},{139,28,2,164,129,65,42,257,228,182,245,97,114},{75,229,84,130,115,66,29,98,183,213,165},{116,151,246,99,17,30,67,140,3,258,85,43,172,184},{103,134,88,204,154,21,188,119,217,57,68},{60,135,238,123,107,251,158,38,92,69,25,192,11},{47,39,108,80,147,179,70,221,136,169,193,61,12,207,265},{124,194,48,252,0,81,71,137,239,26,222,109,148},{111,62,72,224,253,197,210,161,14,51,241,40},{75,72,77,80,76,79,73,71,78,74},{41,96,256,227,212,244,53,113,163,128,64,74,199},{75,229,84,130,115,66,29,98,183,213,165},{152,6,166,143,76,87,101,32,261,232,20,133,202,215},{102,7,77,144,203,45,187,56,175,153,233,167,216,33},{75,72,77,80,76,79,73,71,78,74},{90,36,177,236,79,121,23,156,206,191,263,9,219},{47,39,108,80,147,179,70,221,136,169,193,61,12,207,265},{124,194,48,252,0,81,71,137,239,26,222,109,148},{91,84,88,90,86,82,81,87,89,92,83,85},{91,84,88,90,86,82,81,87,89,92,83,85},{91,84,88,90,86,82,81,87,89,92,83,85},{91,84,88,90,86,82,81,87,89,92,83,85},{19,248,186,86,231,55,132,142,174,5,260,118,201,100,44},{152,6,166,143,76,87,101,32,261,232,20,133,202,215},{91,84,88,90,86,82,81,87,89,92,83,85},{91,84,88,90,86,82,81,87,89,92,83,85},{91,84,88,90,86,82,81,87,89,92,83,85},{91,24,157,146,10,37,122,59,106,264,220,237,178},{60,135,238,123,107,251,158,38,92,69,25,192,11},{103,102,108,96,107,99,93,105,106,101,98,95,104,94,97,100},{103,102,108,96,107,99,93,105,106,101,98,95,104,94,97,100},{103,102,108,96,107,99,93,105,106,101,98,95,104,94,97,100},{103,102,108,96,107,99,93,105,106,101,98,95,104,94,97,100},{103,102,108,96,107,99,93,105,106,101,98,95,104,94,97,100},{103,102,108,96,107,99,93,105,106,101,98,95,104,94,97,100},{103,102,108,96,107,99,93,105,106,101,98,95,104,94,97,100},{103,102,108,96,107,99,93,105,106,101,98,95,104,94,97,100},{103,102,108,96,107,99,93,105,106,101,98,95,104,94,97,100},{103,102,108,96,107,99,93,105,106,101,98,95,104,94,97,100},{103,102,108,96,107,99,93,105,106,101,98,95,104,94,97,100},{103,102,108,96,107,99,93,105,106,101,98,95,104,94,97,100},{103,102,108,96,107,99,93,105,106,101,98,95,104,94,97,100},{103,102,108,96,107,99,93,105,106,101,98,95,104,94,97,100},{103,102,108,96,107,99,93,105,106,101,98,95,104,94,97,100},{103,102,108,96,107,99,93,105,106,101,98,95,104,94,97,100},{116,111,123,110,122,121,115,112,113,109,119,120,118,117,114},{116,111,123,110,122,121,115,112,113,109,119,120,118,117,114},{116,111,123,110,122,121,115,112,113,109,119,120,118,117,114},{116,111,123,110,122,121,115,112,113,109,119,120,118,117,114},{116,111,123,110,122,121,115,112,113,109,119,120,118,117,114},{116,111,123,110,122,121,115,112,113,109,119,120,118,117,114},{116,111,123,110,122,121,115,112,113,109,119,120,118,117,114},{116,111,123,110,122,121,115,112,113,109,119,120,118,117,114},{116,111,123,110,122,121,115,112,113,109,119,120,118,117,114},{116,111,123,110,122,121,115,112,113,109,119,120,118,117,114},{116,111,123,110,122,121,115,112,113,109,119,120,118,117,114},{116,111,123,110,122,121,115,112,113,109,119,120,118,117,114},{116,111,123,110,122,121,115,112,113,109,119,120,118,117,114},{91,24,157,146,10,37,122,59,106,264,220,237,178},{116,111,123,110,122,121,115,112,113,109,119,120,118,117,114},{124,135,134,131,127,130,129,125,126,136,132,128,133},{124,135,134,131,127,130,129,125,126,136,132,128,133},{124,135,134,131,127,130,129,125,126,136,132,128,133},{124,135,134,131,127,130,129,125,126,136,132,128,133},{124,135,134,131,127,130,129,125,126,136,132,128,133},{124,135,134,131,127,130,129,125,126,136,132,128,133},{124,135,134,131,127,130,129,125,126,136,132,128,133},{124,135,134,131,127,130,129,125,126,136,132,128,133},{124,135,134,131,127,130,129,125,126,136,132,128,133},{124,135,134,131,127,130,129,125,126,136,132,128,133},{124,135,134,131,127,130,129,125,126,136,132,128,133},{124,135,134,131,127,130,129,125,126,136,132,128,133},{124,135,134,131,127,130,129,125,126,136,132,128,133},{124,194,48,252,0,81,71,137,239,26,222,109,148},{139,146,144,143,147,145,137,138,142,141,140},{139,28,2,164,129,65,42,257,228,182,245,97,114},{116,151,246,99,17,30,67,140,3,258,85,43,172,184},{259,4,131,31,200,214,173,185,141,247,54,230,18,117},{19,248,186,86,231,55,132,142,174,5,260,118,201,100,44},{152,6,166,143,76,87,101,32,261,232,20,133,202,215},{102,7,77,144,203,45,187,56,175,153,233,167,216,33},{139,146,144,143,147,145,137,138,142,141,140},{91,24,157,146,10,37,122,59,106,264,220,237,178},{47,39,108,80,147,179,70,221,136,169,193,61,12,207,265},{124,194,48,252,0,81,71,137,239,26,222,109,148},{110,49,125,208,170,82,223,93,180,149,195,159},{63,225,211,254,181,242,112,52,95,15,198,150},{116,151,246,99,17,30,67,140,3,258,85,43,172,184},{152,6,166,143,76,87,101,32,261,232,20,133,202,215},{102,7,77,144,203,45,187,56,175,153,233,167,216,33},{157,151,152,155,158,156,149,154,153,150,148},{58,155,190,262,35,105,89,8,120,235,250,205,218},{90,36,177,236,79,121,23,156,206,191,263,9,219},{91,24,157,146,10,37,122,59,106,264,220,237,178},{60,135,238,123,107,251,158,38,92,69,25,192,11},{110,49,125,208,170,82,223,93,180,149,195,159},{27,196,1,13,126,240,160,50,94,209},{111,62,72,224,253,197,210,161,14,51,241,40},{255,127,243,171,73,138,162,226,83,16},{41,96,256,227,212,244,53,113,163,128,64,74,199},{139,28,2,164,129,65,42,257,228,182,245,97,114},{75,229,84,130,115,66,29,98,183,213,165},{152,6,166,143,76,87,101,32,261,232,20,133,202,215},{102,7,77,144,203,45,187,56,175,153,233,167,216,33},{249,46,145,168,22,234,176,189,34,78,104},{47,39,108,80,147,179,70,221,136,169,193,61,12,207,265},{110,49,125,208,170,82,223,93,180,149,195,159},{255,127,243,171,73,138,162,226,83,16},{116,151,246,99,17,30,67,140,3,258,85,43,172,184},{259,4,131,31,200,214,173,185,141,247,54,230,18,117},{19,248,186,86,231,55,132,142,174,5,260,118,201,100,44},{102,7,77,144,203,45,187,56,175,153,233,167,216,33},{249,46,145,168,22,234,176,189,34,78,104},{90,36,177,236,79,121,23,156,206,191,263,9,219},{91,24,157,146,10,37,122,59,106,264,220,237,178},{47,39,108,80,147,179,70,221,136,169,193,61,12,207,265},{110,49,125,208,170,82,223,93,180,149,195,159},{187,190,186,181,185,180,191,193,189,192,188,182,183,184},{139,28,2,164,129,65,42,257,228,182,245,97,114},{187,190,186,181,185,180,191,193,189,192,188,182,183,184},{116,151,246,99,17,30,67,140,3,258,85,43,172,184},{259,4,131,31,200,214,173,185,141,247,54,230,18,117},{19,248,186,86,231,55,132,142,174,5,260,118,201,100,44},{102,7,77,144,203,45,187,56,175,153,233,167,216,33},{187,190,186,181,185,180,191,193,189,192,188,182,183,184},{187,190,186,181,185,180,191,193,189,192,188,182,183,184},{187,190,186,181,185,180,191,193,189,192,188,182,183,184},{90,36,177,236,79,121,23,156,206,191,263,9,219},{60,135,238,123,107,251,158,38,92,69,25,192,11},{47,39,108,80,147,179,70,221,136,169,193,61,12,207,265},{124,194,48,252,0,81,71,137,239,26,222,109,148},{194,196,204,203,197,200,206,202,201,195,199,207,198,205},{194,196,204,203,197,200,206,202,201,195,199,207,198,205},{111,62,72,224,253,197,210,161,14,51,241,40},{194,196,204,203,197,200,206,202,201,195,199,207,198,205},{41,96,256,227,212,244,53,113,163,128,64,74,199},{259,4,131,31,200,214,173,185,141,247,54,230,18,117},{19,248,186,86,231,55,132,142,174,5,260,118,201,100,44},{152,6,166,143,76,87,101,32,261,232,20,133,202,215},{102,7,77,144,203,45,187,56,175,153,233,167,216,33},{194,196,204,203,197,200,206,202,201,195,199,207,198,205},{194,196,204,203,197,200,206,202,201,195,199,207,198,205},{194,196,204,203,197,200,206,202,201,195,199,207,198,205},{47,39,108,80,147,179,70,221,136,169,193,61,12,207,265},{110,49,125,208,170,82,223,93,180,149,195,159},{208,212,211,214,210,221,220,217,213,216,209,215,218,219},{111,62,72,224,253,197,210,161,14,51,241,40},{63,225,211,254,181,242,112,52,95,15,198,150},{41,96,256,227,212,244,53,113,163,128,64,74,199},{75,229,84,130,115,66,29,98,183,213,165},{259,4,131,31,200,214,173,185,141,247,54,230,18,117},{152,6,166,143,76,87,101,32,261,232,20,133,202,215},{102,7,77,144,203,45,187,56,175,153,233,167,216,33},{208,212,211,214,210,221,220,217,213,216,209,215,218,219},{58,155,190,262,35,105,89,8,120,235,250,205,218},{90,36,177,236,79,121,23,156,206,191,263,9,219},{91,24,157,146,10,37,122,59,106,264,220,237,178},{47,39,108,80,147,179,70,221,136,169,193,61,12,207,265},{229,238,225,224,227,236,223,231,234,232,226,228,230,237,222,233,235},{229,238,225,224,227,236,223,231,234,232,226,228,230,237,222,233,235},{229,238,225,224,227,236,223,231,234,232,226,228,230,237,222,233,235},{229,238,225,224,227,236,223,231,234,232,226,228,230,237,222,233,235},{229,238,225,224,227,236,223,231,234,232,226,228,230,237,222,233,235},{229,238,225,224,227,236,223,231,234,232,226,228,230,237,222,233,235},{229,238,225,224,227,236,223,231,234,232,226,228,230,237,222,233,235},{229,238,225,224,227,236,223,231,234,232,226,228,230,237,222,233,235},{229,238,225,224,227,236,223,231,234,232,226,228,230,237,222,233,235},{229,238,225,224,227,236,223,231,234,232,226,228,230,237,222,233,235},{229,238,225,224,227,236,223,231,234,232,226,228,230,237,222,233,235},{229,238,225,224,227,236,223,231,234,232,226,228,230,237,222,233,235},{229,238,225,224,227,236,223,231,234,232,226,228,230,237,222,233,235},{229,238,225,224,227,236,223,231,234,232,226,228,230,237,222,233,235},{229,238,225,224,227,236,223,231,234,232,226,228,230,237,222,233,235},{229,238,225,224,227,236,223,231,234,232,226,228,230,237,222,233,235},{229,238,225,224,227,236,223,231,234,232,226,228,230,237,222,233,235},{249,246,248,243,244,251,242,240,241,247,239,245,250},{249,246,248,243,244,251,242,240,241,247,239,245,250},{249,246,248,243,244,251,242,240,241,247,239,245,250},{249,246,248,243,244,251,242,240,241,247,239,245,250},{249,246,248,243,244,251,242,240,241,247,239,245,250},{249,246,248,243,244,251,242,240,241,247,239,245,250},{139,28,2,164,129,65,42,257,228,182,245,97,114},{249,246,248,243,244,251,242,240,241,247,239,245,250},{259,4,131,31,200,214,173,185,141,247,54,230,18,117},{249,246,248,243,244,251,242,240,241,247,239,245,250},{249,246,248,243,244,251,242,240,241,247,239,245,250},{249,246,248,243,244,251,242,240,241,247,239,245,250},{60,135,238,123,107,251,158,38,92,69,25,192,11},{259,255,256,252,253,262,254,257,264,261,260,258,263,265},{259,255,256,252,253,262,254,257,264,261,260,258,263,265},{259,255,256,252,253,262,254,257,264,261,260,258,263,265},{259,255,256,252,253,262,254,257,264,261,260,258,263,265},{259,255,256,252,253,262,254,257,264,261,260,258,263,265},{259,255,256,252,253,262,254,257,264,261,260,258,263,265},{259,255,256,252,253,262,254,257,264,261,260,258,263,265},{259,4,131,31,200,214,173,185,141,247,54,230,18,117},{259,255,256,252,253,262,254,257,264,261,260,258,263,265},{259,255,256,252,253,262,254,257,264,261,260,258,263,265},{259,255,256,252,253,262,254,257,264,261,260,258,263,265},{259,255,256,252,253,262,254,257,264,261,260,258,263,265},{91,24,157,146,10,37,122,59,106,264,220,237,178},{47,39,108,80,147,179,70,221,136,169,193,61,12,207,265}];
nr_cliques=266;
