projet_m2_wvcp/original_wvcp_dzn/r25.dzn
name="r25";
nr_vertices=266;
nr_edges=3177;
neighborhoods=[{1,2,3,4,5,6,7,8,9,10,11,12,26,48,71,81,109,124,137,148,194,222,239,252},{0,2,3,4,5,6,7,8,9,10,11,12,13,27,50,94,126,160,196,209,240},{0,1,3,4,5,6,7,8,9,10,11,12,28,42,65,97,114,129,139,164,182,228,245,257},{0,1,2,4,5,6,7,8,9,10,11,12,17,30,43,67,85,99,116,140,151,172,184,246,258},{0,1,2,3,5,6,7,8,9,10,11,12,18,31,54,117,131,141,173,185,200,214,230,247,259},{0,1,2,3,4,6,7,8,9,10,11,12,19,44,55,86,100,118,132,142,174,186,201,231,248,260},{0,1,2,3,4,5,7,8,9,10,11,12,20,32,76,87,101,133,143,152,166,202,215,232,261},{0,1,2,3,4,5,6,8,9,10,11,12,33,45,56,77,102,144,153,167,175,187,203,216,233},{0,1,2,3,4,5,6,7,9,10,11,12,35,58,89,105,120,155,190,205,218,235,250,262},{0,1,2,3,4,5,6,7,8,10,11,12,23,36,79,90,121,156,177,191,206,219,236,263},{0,1,2,3,4,5,6,7,8,9,11,12,24,37,59,91,106,122,146,157,178,220,237,264},{0,1,2,3,4,5,6,7,8,9,10,12,25,38,60,69,92,107,123,135,158,192,238,251},{0,1,2,3,4,5,6,7,8,9,10,11,39,47,61,70,80,108,136,147,169,179,193,207,221,265},{1,14,15,16,17,18,19,20,21,22,23,24,25,27,50,94,126,160,196,209,240},{13,15,16,17,18,19,20,21,22,23,24,25,40,51,62,72,111,161,197,210,224,241,253},{13,14,16,17,18,19,20,21,22,23,24,25,52,63,95,112,150,181,198,211,225,242,254},{13,14,15,17,18,19,20,21,22,23,24,25,73,83,127,138,162,171,226,243,255},{3,13,14,15,16,18,19,20,21,22,23,24,25,30,43,67,85,99,116,140,151,172,184,246,258},{4,13,14,15,16,17,19,20,21,22,23,24,25,31,54,117,131,141,173,185,200,214,230,247,259},{5,13,14,15,16,17,18,20,21,22,23,24,25,44,55,86,100,118,132,142,174,186,201,231,248,260},{6,13,14,15,16,17,18,19,21,22,23,24,25,32,76,87,101,133,143,152,166,202,215,232,261},{13,14,15,16,17,18,19,20,22,23,24,25,57,68,88,103,119,134,154,188,204,217},{13,14,15,16,17,18,19,20,21,23,24,25,34,46,78,104,145,168,176,189,234,249},{9,13,14,15,16,17,18,19,20,21,22,24,25,36,79,90,121,156,177,191,206,219,236,263},{10,13,14,15,16,17,18,19,20,21,22,23,25,37,59,91,106,122,146,157,178,220,237,264},{11,13,14,15,16,17,18,19,20,21,22,23,24,38,60,69,92,107,123,135,158,192,238,251},{0,27,28,29,30,31,32,33,34,35,36,37,38,39,48,71,81,109,124,137,148,194,222,239,252},{1,13,26,28,29,30,31,32,33,34,35,36,37,38,39,50,94,126,160,196,209,240},{2,26,27,29,30,31,32,33,34,35,36,37,38,39,42,65,97,114,129,139,164,182,228,245,257},{26,27,28,30,31,32,33,34,35,36,37,38,39,66,75,84,98,115,130,165,183,213,229},{3,17,26,27,28,29,31,32,33,34,35,36,37,38,39,43,67,85,99,116,140,151,172,184,246,258},{4,18,26,27,28,29,30,32,33,34,35,36,37,38,39,54,117,131,141,173,185,200,214,230,247,259},{6,20,26,27,28,29,30,31,33,34,35,36,37,38,39,76,87,101,133,143,152,166,202,215,232,261},{7,26,27,28,29,30,31,32,34,35,36,37,38,39,45,56,77,102,144,153,167,175,187,203,216,233},{22,26,27,28,29,30,31,32,33,35,36,37,38,39,46,78,104,145,168,176,189,234,249},{8,26,27,28,29,30,31,32,33,34,36,37,38,39,58,89,105,120,155,190,205,218,235,250,262},{9,23,26,27,28,29,30,31,32,33,34,35,37,38,39,79,90,121,156,177,191,206,219,236,263},{10,24,26,27,28,29,30,31,32,33,34,35,36,38,39,59,91,106,122,146,157,178,220,237,264},{11,25,26,27,28,29,30,31,32,33,34,35,36,37,39,60,69,92,107,123,135,158,192,238,251},{12,26,27,28,29,30,31,32,33,34,35,36,37,38,47,61,70,80,108,136,147,169,179,193,207,221,265},{14,41,42,43,44,45,46,47,51,62,72,111,161,197,210,224,241,253},{40,42,43,44,45,46,47,53,64,74,96,113,128,163,199,212,227,244,256},{2,28,40,41,43,44,45,46,47,65,97,114,129,139,164,182,228,245,257},{3,17,30,40,41,42,44,45,46,47,67,85,99,116,140,151,172,184,246,258},{5,19,40,41,42,43,45,46,47,55,86,100,118,132,142,174,186,201,231,248,260},{7,33,40,41,42,43,44,46,47,56,77,102,144,153,167,175,187,203,216,233},{22,34,40,41,42,43,44,45,47,78,104,145,168,176,189,234,249},{12,39,40,41,42,43,44,45,46,61,70,80,108,136,147,169,179,193,207,221,265},{0,26,49,50,51,52,53,54,55,56,57,58,59,60,61,71,81,109,124,137,148,194,222,239,252},{48,50,51,52,53,54,55,56,57,58,59,60,61,82,93,110,125,149,159,170,180,195,208,223},{1,13,27,48,49,51,52,53,54,55,56,57,58,59,60,61,94,126,160,196,209,240},{14,40,48,49,50,52,53,54,55,56,57,58,59,60,61,62,72,111,161,197,210,224,241,253},{15,48,49,50,51,53,54,55,56,57,58,59,60,61,63,95,112,150,181,198,211,225,242,254},{41,48,49,50,51,52,54,55,56,57,58,59,60,61,64,74,96,113,128,163,199,212,227,244,256},{4,18,31,48,49,50,51,52,53,55,56,57,58,59,60,61,117,131,141,173,185,200,214,230,247,259},{5,19,44,48,49,50,51,52,53,54,56,57,58,59,60,61,86,100,118,132,142,174,186,201,231,248,260},{7,33,45,48,49,50,51,52,53,54,55,57,58,59,60,61,77,102,144,153,167,175,187,203,216,233},{21,48,49,50,51,52,53,54,55,56,58,59,60,61,68,88,103,119,134,154,188,204,217},{8,35,48,49,50,51,52,53,54,55,56,57,59,60,61,89,105,120,155,190,205,218,235,250,262},{10,24,37,48,49,50,51,52,53,54,55,56,57,58,60,61,91,106,122,146,157,178,220,237,264},{11,25,38,48,49,50,51,52,53,54,55,56,57,58,59,61,69,92,107,123,135,158,192,238,251},{12,39,47,48,49,50,51,52,53,54,55,56,57,58,59,60,70,80,108,136,147,169,179,193,207,221,265},{14,40,51,63,64,65,66,67,68,69,70,72,111,161,197,210,224,241,253},{15,52,62,64,65,66,67,68,69,70,95,112,150,181,198,211,225,242,254},{41,53,62,63,65,66,67,68,69,70,74,96,113,128,163,199,212,227,244,256},{2,28,42,62,63,64,66,67,68,69,70,97,114,129,139,164,182,228,245,257},{29,62,63,64,65,67,68,69,70,75,84,98,115,130,165,183,213,229},{3,17,30,43,62,63,64,65,66,68,69,70,85,99,116,140,151,172,184,246,258},{21,57,62,63,64,65,66,67,69,70,88,103,119,134,154,188,204,217},{11,25,38,60,62,63,64,65,66,67,68,70,92,107,123,135,158,192,238,251},{12,39,47,61,62,63,64,65,66,67,68,69,80,108,136,147,169,179,193,207,221,265},{0,26,48,72,73,74,75,76,77,78,79,80,81,109,124,137,148,194,222,239,252},{14,40,51,62,71,73,74,75,76,77,78,79,80,111,161,197,210,224,241,253},{16,71,72,74,75,76,77,78,79,80,83,127,138,162,171,226,243,255},{41,53,64,71,72,73,75,76,77,78,79,80,96,113,128,163,199,212,227,244,256},{29,66,71,72,73,74,76,77,78,79,80,84,98,115,130,165,183,213,229},{6,20,32,71,72,73,74,75,77,78,79,80,87,101,133,143,152,166,202,215,232,261},{7,33,45,56,71,72,73,74,75,76,78,79,80,102,144,153,167,175,187,203,216,233},{22,34,46,71,72,73,74,75,76,77,79,80,104,145,168,176,189,234,249},{9,23,36,71,72,73,74,75,76,77,78,80,90,121,156,177,191,206,219,236,263},{12,39,47,61,70,71,72,73,74,75,76,77,78,79,108,136,147,169,179,193,207,221,265},{0,26,48,71,82,83,84,85,86,87,88,89,90,91,92,109,124,137,148,194,222,239,252},{49,81,83,84,85,86,87,88,89,90,91,92,93,110,125,149,159,170,180,195,208,223},{16,73,81,82,84,85,86,87,88,89,90,91,92,127,138,162,171,226,243,255},{29,66,75,81,82,83,85,86,87,88,89,90,91,92,98,115,130,165,183,213,229},{3,17,30,43,67,81,82,83,84,86,87,88,89,90,91,92,99,116,140,151,172,184,246,258},{5,19,44,55,81,82,83,84,85,87,88,89,90,91,92,100,118,132,142,174,186,201,231,248,260},{6,20,32,76,81,82,83,84,85,86,88,89,90,91,92,101,133,143,152,166,202,215,232,261},{21,57,68,81,82,83,84,85,86,87,89,90,91,92,103,119,134,154,188,204,217},{8,35,58,81,82,83,84,85,86,87,88,90,91,92,105,120,155,190,205,218,235,250,262},{9,23,36,79,81,82,83,84,85,86,87,88,89,91,92,121,156,177,191,206,219,236,263},{10,24,37,59,81,82,83,84,85,86,87,88,89,90,92,106,122,146,157,178,220,237,264},{11,25,38,60,69,81,82,83,84,85,86,87,88,89,90,91,107,123,135,158,192,238,251},{49,82,94,95,96,97,98,99,100,101,102,103,104,105,106,107,108,110,125,149,159,170,180,195,208,223},{1,13,27,50,93,95,96,97,98,99,100,101,102,103,104,105,106,107,108,126,160,196,209,240},{15,52,63,93,94,96,97,98,99,100,101,102,103,104,105,106,107,108,112,150,181,198,211,225,242,254},{41,53,64,74,93,94,95,97,98,99,100,101,102,103,104,105,106,107,108,113,128,163,199,212,227,244,256},{2,28,42,65,93,94,95,96,98,99,100,101,102,103,104,105,106,107,108,114,129,139,164,182,228,245,257},{29,66,75,84,93,94,95,96,97,99,100,101,102,103,104,105,106,107,108,115,130,165,183,213,229},{3,17,30,43,67,85,93,94,95,96,97,98,100,101,102,103,104,105,106,107,108,116,140,151,172,184,246,258},{5,19,44,55,86,93,94,95,96,97,98,99,101,102,103,104,105,106,107,108,118,132,142,174,186,201,231,248,260},{6,20,32,76,87,93,94,95,96,97,98,99,100,102,103,104,105,106,107,108,133,143,152,166,202,215,232,261},{7,33,45,56,77,93,94,95,96,97,98,99,100,101,103,104,105,106,107,108,144,153,167,175,187,203,216,233},{21,57,68,88,93,94,95,96,97,98,99,100,101,102,104,105,106,107,108,119,134,154,188,204,217},{22,34,46,78,93,94,95,96,97,98,99,100,101,102,103,105,106,107,108,145,168,176,189,234,249},{8,35,58,89,93,94,95,96,97,98,99,100,101,102,103,104,106,107,108,120,155,190,205,218,235,250,262},{10,24,37,59,91,93,94,95,96,97,98,99,100,101,102,103,104,105,107,108,122,146,157,178,220,237,264},{11,25,38,60,69,92,93,94,95,96,97,98,99,100,101,102,103,104,105,106,108,123,135,158,192,238,251},{12,39,47,61,70,80,93,94,95,96,97,98,99,100,101,102,103,104,105,106,107,136,147,169,179,193,207,221,265},{0,26,48,71,81,110,111,112,113,114,115,116,117,118,119,120,121,122,123,124,137,148,194,222,239,252},{49,82,93,109,111,112,113,114,115,116,117,118,119,120,121,122,123,125,149,159,170,180,195,208,223},{14,40,51,62,72,109,110,112,113,114,115,116,117,118,119,120,121,122,123,161,197,210,224,241,253},{15,52,63,95,109,110,111,113,114,115,116,117,118,119,120,121,122,123,150,181,198,211,225,242,254},{41,53,64,74,96,109,110,111,112,114,115,116,117,118,119,120,121,122,123,128,163,199,212,227,244,256},{2,28,42,65,97,109,110,111,112,113,115,116,117,118,119,120,121,122,123,129,139,164,182,228,245,257},{29,66,75,84,98,109,110,111,112,113,114,116,117,118,119,120,121,122,123,130,165,183,213,229},{3,17,30,43,67,85,99,109,110,111,112,113,114,115,117,118,119,120,121,122,123,140,151,172,184,246,258},{4,18,31,54,109,110,111,112,113,114,115,116,118,119,120,121,122,123,131,141,173,185,200,214,230,247,259},{5,19,44,55,86,100,109,110,111,112,113,114,115,116,117,119,120,121,122,123,132,142,174,186,201,231,248,260},{21,57,68,88,103,109,110,111,112,113,114,115,116,117,118,120,121,122,123,134,154,188,204,217},{8,35,58,89,105,109,110,111,112,113,114,115,116,117,118,119,121,122,123,155,190,205,218,235,250,262},{9,23,36,79,90,109,110,111,112,113,114,115,116,117,118,119,120,122,123,156,177,191,206,219,236,263},{10,24,37,59,91,106,109,110,111,112,113,114,115,116,117,118,119,120,121,123,146,157,178,220,237,264},{11,25,38,60,69,92,107,109,110,111,112,113,114,115,116,117,118,119,120,121,122,135,158,192,238,251},{0,26,48,71,81,109,125,126,127,128,129,130,131,132,133,134,135,136,137,148,194,222,239,252},{49,82,93,110,124,126,127,128,129,130,131,132,133,134,135,136,149,159,170,180,195,208,223},{1,13,27,50,94,124,125,127,128,129,130,131,132,133,134,135,136,160,196,209,240},{16,73,83,124,125,126,128,129,130,131,132,133,134,135,136,138,162,171,226,243,255},{41,53,64,74,96,113,124,125,126,127,129,130,131,132,133,134,135,136,163,199,212,227,244,256},{2,28,42,65,97,114,124,125,126,127,128,130,131,132,133,134,135,136,139,164,182,228,245,257},{29,66,75,84,98,115,124,125,126,127,128,129,131,132,133,134,135,136,165,183,213,229},{4,18,31,54,117,124,125,126,127,128,129,130,132,133,134,135,136,141,173,185,200,214,230,247,259},{5,19,44,55,86,100,118,124,125,126,127,128,129,130,131,133,134,135,136,142,174,186,201,231,248,260},{6,20,32,76,87,101,124,125,126,127,128,129,130,131,132,134,135,136,143,152,166,202,215,232,261},{21,57,68,88,103,119,124,125,126,127,128,129,130,131,132,133,135,136,154,188,204,217},{11,25,38,60,69,92,107,123,124,125,126,127,128,129,130,131,132,133,134,136,158,192,238,251},{12,39,47,61,70,80,108,124,125,126,127,128,129,130,131,132,133,134,135,147,169,179,193,207,221,265},{0,26,48,71,81,109,124,138,139,140,141,142,143,144,145,146,147,148,194,222,239,252},{16,73,83,127,137,139,140,141,142,143,144,145,146,147,162,171,226,243,255},{2,28,42,65,97,114,129,137,138,140,141,142,143,144,145,146,147,164,182,228,245,257},{3,17,30,43,67,85,99,116,137,138,139,141,142,143,144,145,146,147,151,172,184,246,258},{4,18,31,54,117,131,137,138,139,140,142,143,144,145,146,147,173,185,200,214,230,247,259},{5,19,44,55,86,100,118,132,137,138,139,140,141,143,144,145,146,147,174,186,201,231,248,260},{6,20,32,76,87,101,133,137,138,139,140,141,142,144,145,146,147,152,166,202,215,232,261},{7,33,45,56,77,102,137,138,139,140,141,142,143,145,146,147,153,167,175,187,203,216,233},{22,34,46,78,104,137,138,139,140,141,142,143,144,146,147,168,176,189,234,249},{10,24,37,59,91,106,122,137,138,139,140,141,142,143,144,145,147,157,178,220,237,264},{12,39,47,61,70,80,108,136,137,138,139,140,141,142,143,144,145,146,169,179,193,207,221,265},{0,26,48,71,81,109,124,137,149,150,151,152,153,154,155,156,157,158,194,222,239,252},{49,82,93,110,125,148,150,151,152,153,154,155,156,157,158,159,170,180,195,208,223},{15,52,63,95,112,148,149,151,152,153,154,155,156,157,158,181,198,211,225,242,254},{3,17,30,43,67,85,99,116,140,148,149,150,152,153,154,155,156,157,158,172,184,246,258},{6,20,32,76,87,101,133,143,148,149,150,151,153,154,155,156,157,158,166,202,215,232,261},{7,33,45,56,77,102,144,148,149,150,151,152,154,155,156,157,158,167,175,187,203,216,233},{21,57,68,88,103,119,134,148,149,150,151,152,153,155,156,157,158,188,204,217},{8,35,58,89,105,120,148,149,150,151,152,153,154,156,157,158,190,205,218,235,250,262},{9,23,36,79,90,121,148,149,150,151,152,153,154,155,157,158,177,191,206,219,236,263},{10,24,37,59,91,106,122,146,148,149,150,151,152,153,154,155,156,158,178,220,237,264},{11,25,38,60,69,92,107,123,135,148,149,150,151,152,153,154,155,156,157,192,238,251},{49,82,93,110,125,149,160,161,162,163,164,165,166,167,168,169,170,180,195,208,223},{1,13,27,50,94,126,159,161,162,163,164,165,166,167,168,169,196,209,240},{14,40,51,62,72,111,159,160,162,163,164,165,166,167,168,169,197,210,224,241,253},{16,73,83,127,138,159,160,161,163,164,165,166,167,168,169,171,226,243,255},{41,53,64,74,96,113,128,159,160,161,162,164,165,166,167,168,169,199,212,227,244,256},{2,28,42,65,97,114,129,139,159,160,161,162,163,165,166,167,168,169,182,228,245,257},{29,66,75,84,98,115,130,159,160,161,162,163,164,166,167,168,169,183,213,229},{6,20,32,76,87,101,133,143,152,159,160,161,162,163,164,165,167,168,169,202,215,232,261},{7,33,45,56,77,102,144,153,159,160,161,162,163,164,165,166,168,169,175,187,203,216,233},{22,34,46,78,104,145,159,160,161,162,163,164,165,166,167,169,176,189,234,249},{12,39,47,61,70,80,108,136,147,159,160,161,162,163,164,165,166,167,168,179,193,207,221,265},{49,82,93,110,125,149,159,171,172,173,174,175,176,177,178,179,180,195,208,223},{16,73,83,127,138,162,170,172,173,174,175,176,177,178,179,226,243,255},{3,17,30,43,67,85,99,116,140,151,170,171,173,174,175,176,177,178,179,184,246,258},{4,18,31,54,117,131,141,170,171,172,174,175,176,177,178,179,185,200,214,230,247,259},{5,19,44,55,86,100,118,132,142,170,171,172,173,175,176,177,178,179,186,201,231,248,260},{7,33,45,56,77,102,144,153,167,170,171,172,173,174,176,177,178,179,187,203,216,233},{22,34,46,78,104,145,168,170,171,172,173,174,175,177,178,179,189,234,249},{9,23,36,79,90,121,156,170,171,172,173,174,175,176,178,179,191,206,219,236,263},{10,24,37,59,91,106,122,146,157,170,171,172,173,174,175,176,177,179,220,237,264},{12,39,47,61,70,80,108,136,147,169,170,171,172,173,174,175,176,177,178,193,207,221,265},{49,82,93,110,125,149,159,170,181,182,183,184,185,186,187,188,189,190,191,192,193,195,208,223},{15,52,63,95,112,150,180,182,183,184,185,186,187,188,189,190,191,192,193,198,211,225,242,254},{2,28,42,65,97,114,129,139,164,180,181,183,184,185,186,187,188,189,190,191,192,193,228,245,257},{29,66,75,84,98,115,130,165,180,181,182,184,185,186,187,188,189,190,191,192,193,213,229},{3,17,30,43,67,85,99,116,140,151,172,180,181,182,183,185,186,187,188,189,190,191,192,193,246,258},{4,18,31,54,117,131,141,173,180,181,182,183,184,186,187,188,189,190,191,192,193,200,214,230,247,259},{5,19,44,55,86,100,118,132,142,174,180,181,182,183,184,185,187,188,189,190,191,192,193,201,231,248,260},{7,33,45,56,77,102,144,153,167,175,180,181,182,183,184,185,186,188,189,190,191,192,193,203,216,233},{21,57,68,88,103,119,134,154,180,181,182,183,184,185,186,187,189,190,191,192,193,204,217},{22,34,46,78,104,145,168,176,180,181,182,183,184,185,186,187,188,190,191,192,193,234,249},{8,35,58,89,105,120,155,180,181,182,183,184,185,186,187,188,189,191,192,193,205,218,235,250,262},{9,23,36,79,90,121,156,177,180,181,182,183,184,185,186,187,188,189,190,192,193,206,219,236,263},{11,25,38,60,69,92,107,123,135,158,180,181,182,183,184,185,186,187,188,189,190,191,193,238,251},{12,39,47,61,70,80,108,136,147,169,179,180,181,182,183,184,185,186,187,188,189,190,191,192,207,221,265},{0,26,48,71,81,109,124,137,148,195,196,197,198,199,200,201,202,203,204,205,206,207,222,239,252},{49,82,93,110,125,149,159,170,180,194,196,197,198,199,200,201,202,203,204,205,206,207,208,223},{1,13,27,50,94,126,160,194,195,197,198,199,200,201,202,203,204,205,206,207,209,240},{14,40,51,62,72,111,161,194,195,196,198,199,200,201,202,203,204,205,206,207,210,224,241,253},{15,52,63,95,112,150,181,194,195,196,197,199,200,201,202,203,204,205,206,207,211,225,242,254},{41,53,64,74,96,113,128,163,194,195,196,197,198,200,201,202,203,204,205,206,207,212,227,244,256},{4,18,31,54,117,131,141,173,185,194,195,196,197,198,199,201,202,203,204,205,206,207,214,230,247,259},{5,19,44,55,86,100,118,132,142,174,186,194,195,196,197,198,199,200,202,203,204,205,206,207,231,248,260},{6,20,32,76,87,101,133,143,152,166,194,195,196,197,198,199,200,201,203,204,205,206,207,215,232,261},{7,33,45,56,77,102,144,153,167,175,187,194,195,196,197,198,199,200,201,202,204,205,206,207,216,233},{21,57,68,88,103,119,134,154,188,194,195,196,197,198,199,200,201,202,203,205,206,207,217},{8,35,58,89,105,120,155,190,194,195,196,197,198,199,200,201,202,203,204,206,207,218,235,250,262},{9,23,36,79,90,121,156,177,191,194,195,196,197,198,199,200,201,202,203,204,205,207,219,236,263},{12,39,47,61,70,80,108,136,147,169,179,193,194,195,196,197,198,199,200,201,202,203,204,205,206,221,265},{49,82,93,110,125,149,159,170,180,195,209,210,211,212,213,214,215,216,217,218,219,220,221,223},{1,13,27,50,94,126,160,196,208,210,211,212,213,214,215,216,217,218,219,220,221,240},{14,40,51,62,72,111,161,197,208,209,211,212,213,214,215,216,217,218,219,220,221,224,241,253},{15,52,63,95,112,150,181,198,208,209,210,212,213,214,215,216,217,218,219,220,221,225,242,254},{41,53,64,74,96,113,128,163,199,208,209,210,211,213,214,215,216,217,218,219,220,221,227,244,256},{29,66,75,84,98,115,130,165,183,208,209,210,211,212,214,215,216,217,218,219,220,221,229},{4,18,31,54,117,131,141,173,185,200,208,209,210,211,212,213,215,216,217,218,219,220,221,230,247,259},{6,20,32,76,87,101,133,143,152,166,202,208,209,210,211,212,213,214,216,217,218,219,220,221,232,261},{7,33,45,56,77,102,144,153,167,175,187,203,208,209,210,211,212,213,214,215,217,218,219,220,221,233},{21,57,68,88,103,119,134,154,188,204,208,209,210,211,212,213,214,215,216,218,219,220,221},{8,35,58,89,105,120,155,190,205,208,209,210,211,212,213,214,215,216,217,219,220,221,235,250,262},{9,23,36,79,90,121,156,177,191,206,208,209,210,211,212,213,214,215,216,217,218,220,221,236,263},{10,24,37,59,91,106,122,146,157,178,208,209,210,211,212,213,214,215,216,217,218,219,221,237,264},{12,39,47,61,70,80,108,136,147,169,179,193,207,208,209,210,211,212,213,214,215,216,217,218,219,220,265},{0,26,48,71,81,109,124,137,148,194,223,224,225,226,227,228,229,230,231,232,233,234,235,236,237,238,239,252},{49,82,93,110,125,149,159,170,180,195,208,222,224,225,226,227,228,229,230,231,232,233,234,235,236,237,238},{14,40,51,62,72,111,161,197,210,222,223,225,226,227,228,229,230,231,232,233,234,235,236,237,238,241,253},{15,52,63,95,112,150,181,198,211,222,223,224,226,227,228,229,230,231,232,233,234,235,236,237,238,242,254},{16,73,83,127,138,162,171,222,223,224,225,227,228,229,230,231,232,233,234,235,236,237,238,243,255},{41,53,64,74,96,113,128,163,199,212,222,223,224,225,226,228,229,230,231,232,233,234,235,236,237,238,244,256},{2,28,42,65,97,114,129,139,164,182,222,223,224,225,226,227,229,230,231,232,233,234,235,236,237,238,245,257},{29,66,75,84,98,115,130,165,183,213,222,223,224,225,226,227,228,230,231,232,233,234,235,236,237,238},{4,18,31,54,117,131,141,173,185,200,214,222,223,224,225,226,227,228,229,231,232,233,234,235,236,237,238,247,259},{5,19,44,55,86,100,118,132,142,174,186,201,222,223,224,225,226,227,228,229,230,232,233,234,235,236,237,238,248,260},{6,20,32,76,87,101,133,143,152,166,202,215,222,223,224,225,226,227,228,229,230,231,233,234,235,236,237,238,261},{7,33,45,56,77,102,144,153,167,175,187,203,216,222,223,224,225,226,227,228,229,230,231,232,234,235,236,237,238},{22,34,46,78,104,145,168,176,189,222,223,224,225,226,227,228,229,230,231,232,233,235,236,237,238,249},{8,35,58,89,105,120,155,190,205,218,222,223,224,225,226,227,228,229,230,231,232,233,234,236,237,238,250,262},{9,23,36,79,90,121,156,177,191,206,219,222,223,224,225,226,227,228,229,230,231,232,233,234,235,237,238,263},{10,24,37,59,91,106,122,146,157,178,220,222,223,224,225,226,227,228,229,230,231,232,233,234,235,236,238,264},{11,25,38,60,69,92,107,123,135,158,192,222,223,224,225,226,227,228,229,230,231,232,233,234,235,236,237,251},{0,26,48,71,81,109,124,137,148,194,222,240,241,242,243,244,245,246,247,248,249,250,251,252},{1,13,27,50,94,126,160,196,209,239,241,242,243,244,245,246,247,248,249,250,251},{14,40,51,62,72,111,161,197,210,224,239,240,242,243,244,245,246,247,248,249,250,251,253},{15,52,63,95,112,150,181,198,211,225,239,240,241,243,244,245,246,247,248,249,250,251,254},{16,73,83,127,138,162,171,226,239,240,241,242,244,245,246,247,248,249,250,251,255},{41,53,64,74,96,113,128,163,199,212,227,239,240,241,242,243,245,246,247,248,249,250,251,256},{2,28,42,65,97,114,129,139,164,182,228,239,240,241,242,243,244,246,247,248,249,250,251,257},{3,17,30,43,67,85,99,116,140,151,172,184,239,240,241,242,243,244,245,247,248,249,250,251,258},{4,18,31,54,117,131,141,173,185,200,214,230,239,240,241,242,243,244,245,246,248,249,250,251,259},{5,19,44,55,86,100,118,132,142,174,186,201,231,239,240,241,242,243,244,245,246,247,249,250,251,260},{22,34,46,78,104,145,168,176,189,234,239,240,241,242,243,244,245,246,247,248,250,251},{8,35,58,89,105,120,155,190,205,218,235,239,240,241,242,243,244,245,246,247,248,249,251,262},{11,25,38,60,69,92,107,123,135,158,192,238,239,240,241,242,243,244,245,246,247,248,249,250},{0,26,48,71,81,109,124,137,148,194,222,239,253,254,255,256,257,258,259,260,261,262,263,264,265},{14,40,51,62,72,111,161,197,210,224,241,252,254,255,256,257,258,259,260,261,262,263,264,265},{15,52,63,95,112,150,181,198,211,225,242,252,253,255,256,257,258,259,260,261,262,263,264,265},{16,73,83,127,138,162,171,226,243,252,253,254,256,257,258,259,260,261,262,263,264,265},{41,53,64,74,96,113,128,163,199,212,227,244,252,253,254,255,257,258,259,260,261,262,263,264,265},{2,28,42,65,97,114,129,139,164,182,228,245,252,253,254,255,256,258,259,260,261,262,263,264,265},{3,17,30,43,67,85,99,116,140,151,172,184,246,252,253,254,255,256,257,259,260,261,262,263,264,265},{4,18,31,54,117,131,141,173,185,200,214,230,247,252,253,254,255,256,257,258,260,261,262,263,264,265},{5,19,44,55,86,100,118,132,142,174,186,201,231,248,252,253,254,255,256,257,258,259,261,262,263,264,265},{6,20,32,76,87,101,133,143,152,166,202,215,232,252,253,254,255,256,257,258,259,260,262,263,264,265},{8,35,58,89,105,120,155,190,205,218,235,250,252,253,254,255,256,257,258,259,260,261,263,264,265},{9,23,36,79,90,121,156,177,191,206,219,236,252,253,254,255,256,257,258,259,260,261,262,264,265},{10,24,37,59,91,106,122,146,157,178,220,237,252,253,254,255,256,257,258,259,260,261,262,263,265},{12,39,47,61,70,80,108,136,147,169,179,193,207,221,252,253,254,255,256,257,258,259,260,261,262,263,264}];
weights=[494,566,656,330,665,312,596,631,312,209,633,218,288,554,407,266,248,514,292,668,344,340,465,478,653,362,354,690,674,419,393,512,397,236,335,462,565,618,443,675,364,701,562,245,218,580,645,687,640,599,300,394,376,517,378,475,510,251,694,542,691,324,660,633,261,600,449,376,238,404,487,459,649,463,247,688,546,622,268,538,594,474,506,305,657,261,516,454,640,424,603,697,407,459,250,312,631,233,418,551,220,433,688,697,263,451,437,574,636,313,609,672,470,439,213,493,697,240,283,313,293,510,594,611,700,598,452,621,348,610,615,634,412,340,640,683,427,429,413,681,341,396,407,564,611,514,634,551,201,381,218,648,617,320,366,606,468,652,504,213,417,465,396,365,644,227,565,314,479,426,526,470,235,468,385,441,355,539,256,544,411,535,324,293,212,415,552,575,332,350,565,359,338,350,670,247,613,515,227,233,509,258,321,589,605,224,377,229,593,242,478,545,552,253,508,230,250,278,214,207,332,453,319,502,600,601,365,556,360,663,334,475,378,314,386,289,538,325,629,385,445,392,478,558,551,313,608,386,598,674,258,510,580,544,539,662,589,461,275,694,299,384,539,265,390,213];
